4 
5  07 23 38 53 
6  08 23 38 53 
7  08 23 38 53 
8  08 23 38 53 
9  08 23 38 53 
10  08 23 38 53 
11  08 23 38 53 
12  08 23 38 53 
13  08 25 40 55 
14  10 25 40 55 
15  10 25 40 55 
16  10 25 40 55 
17  10 25 40 55 
18  10 25 40 55 
19  10 23 38 53 
20  08 23 38 53 
21  08 23 38 53 
22  08 25 43 
23  12 
0 
